NAME: bip_40_9
TYPE: TSP
COMMENT: bip_40_9
DIMENSION: 40
EDGE_WEIGHT_TYPE: EUC_2D
NODE_COORD_SECTION
1 66 3
2 11 36
3 40 27
4 25 64
5 61 68
6 28 11
7 38 17
8 93 61
9 53 21
10 97 53
11 56 66
12 33 33
13 95 52
14 52 72
15 1 0
16 31 17
17 33 61
18 42 92
19 83 76
20 20 9
21 412 409
22 418 414
23 478 435
24 413 488
25 446 447
26 429 436
27 496 456
28 462 437
29 464 447
30 463 449
31 407 449
32 491 470
33 463 419
34 401 462
35 416 479
36 413 450
37 487 463
38 426 493
39 467 454
40 404 421
